HUN,8,6,614
2,10,5,8,0,22,3,13,4,6,1,21
2,1,4,1,5,20,1,6,0,28,3,4
1,14,4,8,0,29,2,16,3,18,5,15
2,22,0,18,1,7,3,12,5,23,4,19
1,26,0,19,4,29,3,17,5,25,2,4
0,27,5,18,1,1,3,12,4,22,2,23
0,25,2,5,3,15,1,30,4,6,5,19
3,2,2,30,4,25,5,25,0,8,1,5
